NAME          
ROWS
 N  OBJ
 L  c1
 L  c2
 L  c3
COLUMNS
    MARKER    'MARKER'                 'INTORG'
    x[1]      c1        837
    x[1]      c2        989
    x[1]      c3        360
    x[1]      OBJ       -337
    x[2]      c1        162
    x[2]      c2        105
    x[2]      c3        724
    x[2]      OBJ       -508
    x[3]      c1        36
    x[3]      c2        117
    x[3]      c3        136
    x[3]      OBJ       -632
    x[4]      c1        176
    x[4]      c2        329
    x[4]      c3        54
    x[4]      OBJ       -321
    x[5]      c1        59
    x[5]      c2        72
    x[5]      c3        976
    x[5]      OBJ       -356
    x[6]      c1        95
    x[6]      c2        53
    x[6]      c3        881
    x[6]      OBJ       -501
    x[7]      c1        140
    x[7]      c2        872
    x[7]      c3        289
    x[7]      OBJ       -969
    x[8]      c1        330
    x[8]      c2        464
    x[8]      c3        904
    x[8]      OBJ       -621
    x[9]      c1        233
    x[9]      c2        648
    x[9]      c3        212
    x[9]      OBJ       -451
    x[10]     c1        650
    x[10]     c2        957
    x[10]     c3        175
    x[10]     OBJ       -858
RHS
    rhs       c1        1359
    rhs       c2        2303
    rhs       c3        2356
RANGES
BOUNDS
 BV bounds    x[1]
 BV bounds    x[2]
 BV bounds    x[3]
 BV bounds    x[4]
 BV bounds    x[5]
 BV bounds    x[6]
 BV bounds    x[7]
 BV bounds    x[8]
 BV bounds    x[9]
 BV bounds    x[10]
ENDATA
